28      4       
8       11      8       10      
0       0       0       0       0       16      2       4       5       7       9       10      11      12      20      21      22      23      24      25      26      27      
7       1       0       1       1       2       3       16      
8       6       6       5       6       3       6       14      15      
6       5       5       3       2       1       14      
7       0       3       2       1       2       18      19      
7       1       6       6       5       1       8       
4       3       0       4       1       1       8       
10      2       5       4       1       1       13      
9       3       4       6       3       1       28      
10      0       4       5       2       1       17      
3       5       3       4       5       1       13      
7       4       4       0       6       1       13      
6       3       3       0       5       1       28      
7       4       4       0       5       1       28      
2       4       3       6       5       1       28      
3       3       1       6       3       1       28      
5       5       8       1       5       1       28      
3       0       2       3       2       1       28      
6       7       6       5       8       1       28      
4       3       6       5       8       1       28      
5       7       2       1       5       1       28      
3       2       0       4       3       1       28      
6       2       5       0       4       1       28      
9       0       5       2       2       1       28      
8       7       3       3       6       1       28      
6       0       5       5       4       1       28      
5       4       6       5       4       1       28      
0       0       0       0       0       0       
